p cnf 412 698
27 42 -8 76 0
27 42 -8 -76 0
-65 12 -73 77 0
-65 12 -73 -77 0
-61 -31 6 78 0
-61 -31 6 -78 0
-40 74 67 79 0
-40 74 67 -79 0
-23 25 66 80 0
-23 25 66 -80 0
26 -33 46 81 0
26 -33 46 -81 0
10 50 20 82 0
10 50 20 -82 0
-66 -3 60 83 0
-66 -3 60 -83 0
13 21 -30 84 0
13 21 -30 -84 0
25 30 75 85 0
25 30 75 -85 0
-19 -33 40 86 0
-19 -33 40 -86 0
72 1 74 87 0
72 1 74 -87 0
45 -74 20 88 0
45 -74 20 -88 0
60 6 22 89 0
60 6 22 -89 0
-65 -34 -58 90 0
-65 -34 -58 -90 0
71 -67 24 91 0
71 -67 24 -91 0
-59 -52 15 92 0
-59 -52 15 -92 0
74 -37 21 93 0
74 -37 21 -93 0
-19 -51 21 94 0
-19 -51 21 -94 0
-69 -55 63 95 0
-69 -55 63 -95 0
-42 -39 28 96 0
-42 -39 28 -96 0
4 -58 -59 97 0
4 -58 -59 -97 0
-41 -39 13 98 0
-41 -39 13 -98 0
-1 -55 -22 99 0
-1 -55 -22 -99 0
34 -24 -38 100 0
34 -24 -38 -100 0
-51 31 26 101 0
-51 31 26 -101 0
-44 -12 -17 102 0
-44 -12 -17 -102 0
27 -15 5 103 0
27 -15 5 -103 0
15 72 62 104 0
15 72 62 -104 0
-11 71 -55 105 0
-11 71 -55 -105 0
-47 56 2 106 0
-47 56 2 -106 0
-29 -65 42 107 0
-29 -65 42 -107 0
-37 4 34 108 0
-37 4 34 -108 0
49 -31 -27 109 0
49 -31 -27 -109 0
-67 -2 -58 110 0
-67 -2 -58 -110 0
17 21 -44 111 0
17 21 -44 -111 0
49 46 55 112 0
49 46 55 -112 0
34 -52 67 113 0
34 -52 67 -113 0
66 -6 48 114 0
66 -6 48 -114 0
-17 -74 19 115 0
-17 -74 19 -115 0
5 68 -50 116 0
5 68 -50 -116 0
72 -55 -19 117 0
72 -55 -19 -117 0
-47 -46 -8 118 0
-47 -46 -8 -118 0
60 54 -64 119 0
60 54 -64 -119 0
69 22 59 120 0
69 22 59 -120 0
-19 14 23 121 0
-19 14 23 -121 0
-33 -32 12 122 0
-33 -32 12 -122 0
26 -16 -52 123 0
26 -16 -52 -123 0
17 -38 19 124 0
17 -38 19 -124 0
-65 64 -45 125 0
-65 64 -45 -125 0
3 19 67 126 0
3 19 67 -126 0
-58 45 59 127 0
-58 45 59 -127 0
-75 47 43 128 0
-75 47 43 -128 0
15 22 -59 129 0
15 22 -59 -129 0
56 -16 -43 130 0
56 -16 -43 -130 0
-3 67 -62 131 0
-3 67 -62 -131 0
21 -75 -43 132 0
21 -75 -43 -132 0
-32 -68 -36 133 0
-32 -68 -36 -133 0
20 58 63 134 0
20 58 63 -134 0
57 71 30 135 0
57 71 30 -135 0
-68 24 10 136 0
-68 24 10 -136 0
52 -38 27 137 0
52 -38 27 -137 0
-8 -74 -13 138 0
-8 -74 -13 -138 0
-9 17 -39 139 0
-9 17 -39 -139 0
-9 2 -50 140 0
-9 2 -50 -140 0
-56 -19 18 141 0
-56 -19 18 -141 0
-17 -49 -73 142 0
-17 -49 -73 -142 0
64 -1 38 143 0
64 -1 38 -143 0
57 -53 -51 144 0
57 -53 -51 -144 0
73 58 -47 145 0
73 58 -47 -145 0
-2 -42 59 146 0
-2 -42 59 -146 0
-9 12 -16 147 0
-9 12 -16 -147 0
-40 -6 -17 148 0
-40 -6 -17 -148 0
22 27 -41 149 0
22 27 -41 -149 0
58 -19 -10 150 0
58 -19 -10 -150 0
-4 -8 -35 151 0
-4 -8 -35 -151 0
-4 -58 -68 152 0
-4 -58 -68 -152 0
-19 -67 -64 153 0
-19 -67 -64 -153 0
-5 -68 66 154 0
-5 -68 66 -154 0
8 -51 -31 155 0
8 -51 -31 -155 0
68 -57 -6 156 0
68 -57 -6 -156 0
-4 55 34 157 0
-4 55 34 -157 0
45 53 -12 158 0
45 53 -12 -158 0
-73 41 -46 159 0
-73 41 -46 -159 0
1 18 -14 160 0
1 18 -14 -160 0
30 -27 48 161 0
30 -27 48 -161 0
-11 -58 -5 162 0
-11 -58 -5 -162 0
65 -24 -17 163 0
65 -24 -17 -163 0
-54 19 -24 164 0
-54 19 -24 -164 0
-43 47 -2 165 0
-43 47 -2 -165 0
-28 34 -41 166 0
-28 34 -41 -166 0
-74 -69 70 167 0
-74 -69 70 -167 0
32 -71 50 168 0
32 -71 50 -168 0
11 -31 -46 169 0
11 -31 -46 -169 0
23 39 -46 170 0
23 39 -46 -170 0
-17 -65 10 171 0
-17 -65 10 -171 0
-48 50 -15 172 0
-48 50 -15 -172 0
-1 49 58 173 0
-1 49 58 -173 0
-3 -18 -64 174 0
-3 -18 -64 -174 0
48 75 -25 175 0
48 75 -25 -175 0
71 40 52 176 0
71 40 52 -176 0
-27 69 3 177 0
-27 69 3 -177 0
28 37 -69 178 0
28 37 -69 -178 0
44 -15 -18 179 0
44 -15 -18 -179 0
-19 -37 69 180 0
-19 -37 69 -180 0
30 -51 56 181 0
30 -51 56 -181 0
34 -7 71 182 0
34 -7 71 -182 0
-56 1 69 183 0
-56 1 69 -183 0
-50 54 20 184 0
-50 54 20 -184 0
-61 -30 45 185 0
-61 -30 45 -185 0
-71 26 -75 186 0
-71 26 -75 -186 0
-54 65 62 187 0
-54 65 62 -187 0
-7 -34 75 188 0
-7 -34 75 -188 0
31 23 25 189 0
31 23 25 -189 0
-8 -63 2 190 0
-8 -63 2 -190 0
58 -11 25 191 0
58 -11 25 -191 0
-12 -31 66 192 0
-12 -31 66 -192 0
-68 -64 59 193 0
-68 -64 59 -193 0
72 1 50 194 0
72 1 50 -194 0
-53 31 -72 195 0
-53 31 -72 -195 0
5 74 66 196 0
5 74 66 -196 0
33 45 -63 197 0
33 45 -63 -197 0
48 24 33 198 0
48 24 33 -198 0
59 12 2 199 0
59 12 2 -199 0
-42 -10 -55 200 0
-42 -10 -55 -200 0
19 68 70 201 0
19 68 70 -201 0
41 54 72 202 0
41 54 72 -202 0
73 50 -51 203 0
73 50 -51 -203 0
32 65 2 204 0
32 65 2 -204 0
58 64 44 205 0
58 64 44 -205 0
33 -45 -24 206 0
33 -45 -24 -206 0
-55 -19 23 207 0
-55 -19 23 -207 0
-3 -45 75 208 0
-3 -45 75 -208 0
-44 -32 70 209 0
-44 -32 70 -209 0
-4 48 6 210 0
-4 48 6 -210 0
3 -42 -2 211 0
3 -42 -2 -211 0
71 48 -73 212 0
71 48 -73 -212 0
-44 27 15 213 0
-44 27 15 -213 0
49 47 -44 214 0
49 47 -44 -214 0
-21 10 67 215 0
-21 10 67 -215 0
70 -60 25 216 0
70 -60 25 -216 0
16 -26 -2 217 0
16 -26 -2 -217 0
-3 75 62 218 0
-3 75 62 -218 0
-19 -51 48 219 0
-19 -51 48 -219 0
-48 13 19 220 0
-48 13 19 -220 0
62 74 -21 221 0
62 74 -21 -221 0
15 -36 -24 222 0
15 -36 -24 -222 0
-63 -72 73 223 0
-63 -72 73 -223 0
51 -60 -52 224 0
51 -60 -52 -224 0
-34 -20 -57 225 0
-34 -20 -57 -225 0
14 -45 60 226 0
14 -45 60 -226 0
-32 70 40 227 0
-32 70 40 -227 0
-53 -74 -30 228 0
-53 -74 -30 -228 0
51 -24 56 229 0
51 -24 56 -229 0
-73 -6 47 230 0
-73 -6 47 -230 0
41 71 -75 231 0
41 71 -75 -231 0
-30 -61 -50 232 0
-30 -61 -50 -232 0
-28 -19 59 233 0
-28 -19 59 -233 0
53 -44 56 234 0
53 -44 56 -234 0
61 -69 33 235 0
61 -69 33 -235 0
-63 -14 -10 236 0
-63 -14 -10 -236 0
41 -68 -25 237 0
41 -68 -25 -237 0
-1 -14 8 238 0
-1 -14 8 -238 0
-16 48 -45 239 0
-16 48 -45 -239 0
-24 67 36 240 0
-24 67 36 -240 0
72 -12 -21 241 0
72 -12 -21 -241 0
-45 -39 -53 242 0
-45 -39 -53 -242 0
-59 -54 -53 243 0
-59 -54 -53 -243 0
68 -54 21 244 0
68 -54 21 -244 0
-4 -74 -19 245 0
-4 -74 -19 -245 0
-47 -51 -55 246 0
-47 -51 -55 -246 0
52 27 -16 247 0
52 27 -16 -247 0
-68 -5 49 248 0
-68 -5 49 -248 0
-18 63 -65 249 0
-18 63 -65 -249 0
66 -28 38 250 0
66 -28 38 -250 0
53 38 -68 251 0
53 38 -68 -251 0
10 6 2 252 0
10 6 2 -252 0
-20 27 68 253 0
-20 27 68 -253 0
-15 10 68 254 0
-15 10 68 -254 0
-43 -63 69 255 0
-43 -63 69 -255 0
-30 -16 -4 256 0
-30 -16 -4 -256 0
72 51 55 257 0
72 51 55 -257 0
42 36 -29 258 0
42 36 -29 -258 0
39 47 61 259 0
39 47 61 -259 0
-64 -67 -8 260 0
-64 -67 -8 -260 0
-68 -74 -2 261 0
-68 -74 -2 -261 0
50 58 21 262 0
50 58 21 -262 0
-32 47 66 263 0
-32 47 66 -263 0
37 45 70 264 0
37 45 70 -264 0
-43 -64 -10 265 0
-43 -64 -10 -265 0
36 39 -53 266 0
36 39 -53 -266 0
8 -10 20 267 0
8 -10 20 -267 0
-58 -70 71 268 0
-58 -70 71 -268 0
-72 16 -46 269 0
-72 16 -46 -269 0
9 -5 35 270 0
9 -5 35 -270 0
-72 -16 45 271 0
-72 -16 45 -271 0
11 60 -14 272 0
11 60 -14 -272 0
-55 -70 46 273 0
-55 -70 46 -273 0
52 40 -23 274 0
52 40 -23 -274 0
-39 -7 29 275 0
-39 -7 29 -275 0
53 -1 5 276 0
53 -1 5 -276 0
-37 -23 -68 277 0
-37 -23 -68 -277 0
44 -45 -23 278 0
44 -45 -23 -278 0
52 35 22 279 0
52 35 22 -279 0
46 43 27 280 0
46 43 27 -280 0
30 -7 -8 281 0
30 -7 -8 -281 0
38 59 -18 282 0
38 59 -18 -282 0
7 -53 -73 283 0
7 -53 -73 -283 0
-36 74 57 284 0
-36 74 57 -284 0
-41 -56 -55 285 0
-41 -56 -55 -285 0
24 65 14 286 0
24 65 14 -286 0
75 43 64 287 0
75 43 64 -287 0
4 11 -72 288 0
4 11 -72 -288 0
-51 -48 -33 289 0
-51 -48 -33 -289 0
11 41 39 290 0
11 41 39 -290 0
-29 14 -36 291 0
-29 14 -36 -291 0
59 -61 -29 292 0
59 -61 -29 -292 0
4 75 44 293 0
4 75 44 -293 0
56 60 -65 294 0
56 60 -65 -294 0
73 -40 -15 295 0
73 -40 -15 -295 0
58 -74 -53 296 0
58 -74 -53 -296 0
58 -41 -57 297 0
58 -41 -57 -297 0
-58 -46 -26 298 0
-58 -46 -26 -298 0
-31 -42 33 299 0
-31 -42 33 -299 0
41 36 -22 300 0
41 36 -22 -300 0
59 -4 38 301 0
59 -4 38 -301 0
-59 -27 -15 302 0
-59 -27 -15 -302 0
53 39 31 303 0
53 39 31 -303 0
47 45 -55 304 0
47 45 -55 -304 0
10 -54 11 305 0
10 -54 11 -305 0
-16 -38 20 306 0
-16 -38 20 -306 0
12 23 32 307 0
12 23 32 -307 0
-11 -70 64 308 0
-11 -70 64 -308 0
54 -44 -46 309 0
54 -44 -46 -309 0
8 57 37 310 0
8 57 37 -310 0
-35 28 54 311 0
-35 28 54 -311 0
60 -17 -40 312 0
60 -17 -40 -312 0
42 -52 30 313 0
42 -52 30 -313 0
72 -18 -2 314 0
72 -18 -2 -314 0
-36 -46 -23 315 0
-36 -46 -23 -315 0
-14 10 17 316 0
-14 10 17 -316 0
-52 -32 -74 317 0
-52 -32 -74 -317 0
-35 -50 33 318 0
-35 -50 33 -318 0
20 64 25 319 0
20 64 25 -319 0
8 53 -60 320 0
8 53 -60 -320 0
68 45 -52 321 0
68 45 -52 -321 0
-43 14 23 322 0
-43 14 23 -322 0
-24 41 -70 323 0
-24 41 -70 -323 0
63 -50 -51 324 0
63 -50 -51 -324 0
25 3 46 325 0
25 3 46 -325 0
51 25 47 326 0
51 25 47 -326 0
-19 -2 22 327 0
-19 -2 22 -327 0
-61 -67 69 328 0
-61 -67 69 -328 0
42 -35 -73 329 0
42 -35 -73 -329 0
10 71 -55 330 0
10 71 -55 -330 0
56 52 29 331 0
56 52 29 -331 0
-26 -12 59 332 0
-26 -12 59 -332 0
52 46 6 333 0
52 46 6 -333 0
74 52 27 334 0
74 52 27 -334 0
26 18 -15 335 0
26 18 -15 -335 0
62 4 20 336 0
62 4 20 -336 0
52 37 41 337 0
52 37 41 -337 0
-46 5 66 338 0
-46 5 66 -338 0
5 -34 60 339 0
5 -34 60 -339 0
-50 75 -25 340 0
-50 75 -25 -340 0
-33 67 -51 341 0
-33 67 -51 -341 0
-6 58 -24 342 0
-6 58 -24 -342 0
-67 -63 57 343 0
-67 -63 57 -343 0
-65 -43 51 344 0
-65 -43 51 -344 0
56 -49 25 345 0
56 -49 25 -345 0
53 -70 22 346 0
53 -70 22 -346 0
-15 53 11 347 0
-15 53 11 -347 0
-15 -16 71 348 0
-15 -16 71 -348 0
62 22 64 349 0
62 22 64 -349 0
17 69 -38 350 0
17 69 -38 -350 0
74 -26 -14 351 0
74 -26 -14 -351 0
41 -50 52 352 0
41 -50 52 -352 0
19 14 -20 353 0
19 14 -20 -353 0
27 74 -20 354 0
27 74 -20 -354 0
-28 -51 -33 355 0
-28 -51 -33 -355 0
-58 70 14 356 0
-58 70 14 -356 0
38 -62 -60 357 0
38 -62 -60 -357 0
18 9 72 358 0
18 9 72 -358 0
-35 -49 -6 359 0
-35 -49 -6 -359 0
-18 17 16 360 0
-18 17 16 -360 0
-38 -65 6 361 0
-38 -65 6 -361 0
-62 23 13 362 0
-62 23 13 -362 0
29 54 12 363 0
29 54 12 -363 0
-34 50 -8 364 0
-34 50 -8 -364 0
4 46 12 365 0
4 46 12 -365 0
31 59 -8 366 0
31 59 -8 -366 0
63 -20 -17 367 0
63 -20 -17 -367 0
4 -20 -32 368 0
4 -20 -32 -368 0
-49 -3 -22 369 0
-49 -3 -22 -369 0
-52 -46 -22 370 0
-52 -46 -22 -370 0
7 -20 -25 371 0
7 -20 -25 -371 0
8 -45 -4 372 0
8 -45 -4 -372 0
2 -49 -14 373 0
2 -49 -14 -373 0
5 38 60 374 0
5 38 60 -374 0
2 -69 -72 375 0
2 -69 -72 -375 0
65 63 -7 376 0
65 63 -7 -376 0
73 9 32 377 0
73 9 32 -377 0
71 -34 -51 378 0
71 -34 -51 -378 0
-67 70 2 379 0
-67 70 2 -379 0
-3 -23 -13 380 0
-3 -23 -13 -380 0
-62 -34 -57 381 0
-62 -34 -57 -381 0
55 -46 66 382 0
55 -46 66 -382 0
-13 -43 -57 383 0
-13 -43 -57 -383 0
27 43 -42 384 0
27 43 -42 -384 0
-46 22 -10 385 0
-46 22 -10 -385 0
53 -8 -13 386 0
53 -8 -13 -386 0
16 -55 32 387 0
16 -55 32 -387 0
30 -3 47 388 0
30 -3 47 -388 0
58 -16 66 389 0
58 -16 66 -389 0
13 -15 -31 390 0
13 -15 -31 -390 0
2 50 -60 391 0
2 50 -60 -391 0
75 24 38 392 0
75 24 38 -392 0
35 -60 31 393 0
35 -60 31 -393 0
29 54 37 394 0
29 54 37 -394 0
-28 16 19 395 0
-28 16 19 -395 0
36 -39 -66 396 0
36 -39 -66 -396 0
-4 53 -22 397 0
-4 53 -22 -397 0
70 -43 36 398 0
70 -43 36 -398 0
46 3 10 399 0
46 3 10 -399 0
11 50 -29 400 0
11 50 -29 -400 0
401 402 403 404 0
401 402 403 -404 0
401 402 -403 404 0
401 402 -403 -404 0
401 -402 403 404 0
401 -402 403 -404 0
401 -402 -403 404 0
401 -402 -403 -404 0
-401 402 403 404 0
-401 402 403 -404 0
-401 402 -403 404 0
-401 402 -403 -404 0
-401 -402 403 404 0
-401 -402 403 -404 0
-401 -402 -403 404 0
-401 -402 -403 -404 0
405 406 407 408 0
405 406 407 -408 0
405 406 -407 408 0
405 406 -407 -408 0
405 -406 407 408 0
405 -406 407 -408 0
405 -406 -407 408 0
405 -406 -407 -408 0
-405 406 407 408 0
-405 406 407 -408 0
-405 406 -407 408 0
-405 406 -407 -408 0
-405 -406 407 408 0
-405 -406 407 -408 0
-405 -406 -407 408 0
-405 -406 -407 -408 0
409 410 411 412 0
409 410 411 -412 0
409 410 -411 412 0
409 410 -411 -412 0
409 -410 411 412 0
409 -410 411 -412 0
409 -410 -411 412 0
409 -410 -411 -412 0
-409 410 411 412 0
-409 410 411 -412 0
-409 410 -411 412 0
-409 410 -411 -412 0
-409 -410 411 412 0
-409 -410 411 -412 0
-409 -410 -411 412 0
-409 -410 -411 -412 0
